networks/zoo_56_617/zoo_56_617.txt
Number of groups: 28
Flow 14: {16 15} {15 43} 
Flow 15: {1 21} {21 17} {17 16} {16 44} 
Flow 17: {25 18} {18 46} 
Flow 26: {27 55} 
Flow 28: {2 21} {21 1} {1 29} 
Flow 79: {3 28} {28 27} {27 26} {26 54} 
Flow 93: {4 22} {22 13} {13 41} 
Flow 110: {5 22} {22 4} {4 32} 
Flow 131: {6 22} {22 23} {23 51} 
Flow 141: {7 4} Flow 142: {7 4} {4 12} {12 40} 
Flow 163: {8 24} {24 14} {14 42} 
Flow 180: {9 22} {22 6} {6 34} 
Flow 204: {10 22} {22 9} {9 37} 
Flow 212: {22 26} {26 27} {27 19} {19 20} {20 48} 
Flow 223: {11 4} {4 3} {3 31} 
Flow 240: {12 4} {4 7} {7 35} 
Flow 269: {13 22} {22 25} {25 53} 
Flow 278: {14 24} {24 22} {22 50} 
Flow 298: {15 16} {16 17} {17 45} 
Flow 302: {17 21} {21 49} 
Flow 386: {18 25} {25 22} {22 24} {24 52} 
Flow 400: {26 22} {22 10} {10 38} 
Flow 417: {19 27} {27 28} {28 56} 
Flow 429: {20 19} {19 47} 
Flow 442: {21 22} {22 5} {5 33} 
Flow 445: {24 8} {8 36} 
Flow 492: {23 22} {22 21} {21 2} {2 30} 
Flow 601: {28 3} {3 4} {4 11} {11 39} 
Time taken running everything: 5 seconds
