networks/zoo_56_617/zoo_56_617.sol
<?xml version = "1.0" encoding="UTF-8" standalone="yes"?>
<CPLEXSolution version="1.2">
 <header
   problemName="networks/zoo_56_617/zoo_56_617.lp"
   solutionName="incumbent"
   solutionIndex="-1"
   objectiveValue="28"
   solutionTypeValue="3"
   solutionTypeString="primal"
   solutionStatusValue="101"
   solutionStatusString="integer optimal solution"
   solutionMethodString="mip"
   primalFeasible="1"
   dualFeasible="1"
   MIPNodes="0"
   MIPIterations="2814"
   writeLevel="3"/>
 <quality
   epInt="1.0000000000000001e-05"
   epRHS="9.9999999999999995e-07"
   maxIntInfeas="0"
   maxPrimalInfeas="3.5527136788005009e-15"
   maxX="4"
   maxSlack="10"/>
 <variables>
  <variable name="Y(10,11)" index="514" value="1"/>
  <variable name="Y(15,16)" index="799" value="1"/>
  <variable name="Y(17,18)" index="913" value="1"/>
  <variable name="Y(19,20)" index="1027" value="1"/>
  <variable name="Y(41,15)" index="2254" value="1"/>
  <variable name="Y(47,21)" index="2596" value="1"/>
  <variable name="Y(63,10)" index="3481" value="1"/>
  <variable name="Y(66,13)" index="3652" value="1"/>
  <variable name="Y(79,26)" index="4393" value="1"/>
  <variable name="Y(109,2)" index="6049" value="1"/>
  <variable name="Y(132,24)" index="7359" value="1"/>
  <variable name="Y(142,12)" index="7907" value="1"/>
  <variable name="Y(163,14)" index="9085" value="1"/>
  <variable name="Y(193,23)" index="10774" value="1"/>
  <variable name="Y(204,9)" index="11376" value="1"/>
  <variable name="Y(224,4)" index="12491" value="1"/>
  <variable name="Y(240,7)" index="13390" value="1"/>
  <variable name="Y(267,19)" index="14914" value="1"/>
  <variable name="Y(278,22)" index="15533" value="1"/>
  <variable name="Y(298,17)" index="16648" value="1"/>
  <variable name="Y(337,1)" index="18816" value="1"/>
  <variable name="Y(369,6)" index="20613" value="1"/>
  <variable name="Y(390,28)" index="21811" value="1"/>
  <variable name="Y(393,3)" index="21954" value="1"/>
  <variable name="Y(395,5)" index="22068" value="1"/>
  <variable name="Y(436,27)" index="24386" value="1"/>
  <variable name="Y(445,8)" index="24871" value="1"/>
  <variable name="Y(498,25)" index="27856" value="1"/>
  <variable name="X(1,21,10)" index="34561" value="1"/>
  <variable name="X(1,29,337)" index="35505" value="1"/>
  <variable name="X(2,21,47)" index="35832" value="1"/>
  <variable name="X(2,30,109)" index="36511" value="1"/>
  <variable name="X(3,4,63)" index="37082" value="1"/>
  <variable name="X(3,28,390)" index="38026" value="1"/>
  <variable name="X(3,31,393)" index="38646" value="1"/>
  <variable name="X(4,3,390)" index="39260" value="1"/>
  <variable name="X(4,7,240)" index="39727" value="1"/>
  <variable name="X(4,11,10)" index="40114" value="1"/>
  <variable name="X(4,12,142)" index="40863" value="1"/>
  <variable name="X(4,22,63)" index="41401" value="1"/>
  <variable name="X(4,32,224)" index="42179" value="1"/>
  <variable name="X(5,22,109)" index="42681" value="1"/>
  <variable name="X(5,33,395)" index="43584" value="1"/>
  <variable name="X(6,22,132)" index="43938" value="1"/>
  <variable name="X(6,34,369)" index="44792" value="1"/>
  <variable name="X(7,4,142)" index="45182" value="1"/>
  <variable name="X(7,35,240)" index="45897" value="1"/>
  <variable name="X(8,24,163)" index="46437" value="1"/>
  <variable name="X(8,36,445)" index="47336" value="1"/>
  <variable name="X(9,22,193)" index="47701" value="1"/>
  <variable name="X(9,37,204)" index="48329" value="1"/>
  <variable name="X(10,22,204)" index="48946" value="1"/>
  <variable name="X(10,38,63)" index="49422" value="1"/>
  <variable name="X(11,4,224)" index="50200" value="1"/>
  <variable name="X(11,39,10)" index="50603" value="1"/>
  <variable name="X(12,4,240)" index="51450" value="1"/>
  <variable name="X(12,40,142)" index="51969" value="1"/>
  <variable name="X(13,22,267)" index="52711" value="1"/>
  <variable name="X(13,41,66)" index="53127" value="1"/>
  <variable name="X(14,24,278)" index="53956" value="1"/>
  <variable name="X(14,42,163)" index="54458" value="1"/>
  <variable name="X(15,16,298)" index="55210" value="1"/>
  <variable name="X(15,43,41)" index="55570" value="1"/>
  <variable name="X(16,15,41)" index="56187" value="1"/>
  <variable name="X(16,17,298)" index="57061" value="1"/>
  <variable name="X(16,44,15)" index="57395" value="1"/>
  <variable name="X(17,16,41)" index="58038" value="1"/>
  <variable name="X(17,21,337)" index="58951" value="1"/>
  <variable name="X(17,45,298)" index="59529" value="1"/>
  <variable name="X(18,25,369)" index="60217" value="1"/>
  <variable name="X(18,46,17)" index="60482" value="1"/>
  <variable name="X(19,20,19)" index="61101" value="1"/>
  <variable name="X(19,27,436)" index="62135" value="1"/>
  <variable name="X(19,47,267)" index="62583" value="1"/>
  <variable name="X(20,19,436)" index="63369" value="1"/>
  <variable name="X(20,48,19)" index="63569" value="1"/>
  <variable name="X(21,1,337)" index="64504" value="1"/>
  <variable name="X(21,2,109)" index="64893" value="1"/>
  <variable name="X(21,17,41)" index="65442" value="1"/>
  <variable name="X(21,22,10)" index="66028" value="1"/>
  <variable name="X(21,49,47)" index="66682" value="1"/>
  <variable name="X(22,4,10)" index="67262" value="1"/>
  <variable name="X(22,5,395)" index="68264" value="1"/>
  <variable name="X(22,6,369)" index="68855" value="1"/>
  <variable name="X(22,9,204)" index="69307" value="1"/>
  <variable name="X(22,10,63)" index="69783" value="1"/>
  <variable name="X(22,13,66)" index="70403" value="1"/>
  <variable name="X(22,21,109)" index="71063" value="1"/>
  <variable name="X(22,23,193)" index="71764" value="1"/>
  <variable name="X(22,24,132)" index="72320" value="1"/>
  <variable name="X(22,25,498)" index="73303" value="1"/>
  <variable name="X(22,26,267)" index="73689" value="1"/>
  <variable name="X(22,50,278)" index="74317" value="1"/>
  <variable name="X(23,22,498)" index="75154" value="1"/>
  <variable name="X(23,51,193)" index="75466" value="1"/>
  <variable name="X(24,8,445)" index="76335" value="1"/>
  <variable name="X(24,14,163)" index="76670" value="1"/>
  <variable name="X(24,22,278)" index="77402" value="1"/>
  <variable name="X(24,52,132)" index="77873" value="1"/>
  <variable name="X(25,18,17)" index="78375" value="1"/>
  <variable name="X(25,22,369)" index="79344" value="1"/>
  <variable name="X(25,53,498)" index="80090" value="1"/>
  <variable name="X(26,22,395)" index="80604" value="1"/>
  <variable name="X(26,27,267)" index="81093" value="1"/>
  <variable name="X(26,54,79)" index="81522" value="1"/>
  <variable name="X(27,19,267)" index="82327" value="1"/>
  <variable name="X(27,26,79)" index="82756" value="1"/>
  <variable name="X(27,28,393)" index="83687" value="1"/>
  <variable name="X(27,55,436)" index="84347" value="1"/>
  <variable name="X(28,3,393)" index="84921" value="1"/>
  <variable name="X(28,27,79)" index="85224" value="1"/>
  <variable name="X(28,56,390)" index="86152" value="1"/>
  <variable name="C(10,21)" index="86419" value="1.0000000000000036"/>
  <variable name="C(10,22)" index="86420" value="2.0000000000000027"/>
  <variable name="C(10,4)" index="86421" value="3.0000000000000013"/>
  <variable name="C(10,11)" index="86422" value="4"/>
  <variable name="C(17,18)" index="86453" value="1"/>
  <variable name="C(19,20)" index="86466" value="1"/>
  <variable name="C(41,17)" index="86558" value="1"/>
  <variable name="C(41,16)" index="86559" value="2"/>
  <variable name="C(41,15)" index="86560" value="3"/>
  <variable name="C(47,21)" index="86587" value="1"/>
  <variable name="C(63,4)" index="86651" value="1"/>
  <variable name="C(63,22)" index="86652" value="2"/>
  <variable name="C(63,10)" index="86653" value="3"/>
  <variable name="C(66,13)" index="86663" value="1"/>
  <variable name="C(79,27)" index="86722" value="1"/>
  <variable name="C(79,26)" index="86723" value="2"/>
  <variable name="C(109,22)" index="86823" value="1"/>
  <variable name="C(109,21)" index="86824" value="2"/>
  <variable name="C(109,2)" index="86825" value="3"/>
  <variable name="C(132,22)" index="86911" value="1"/>
  <variable name="C(132,24)" index="86912" value="2"/>
  <variable name="C(142,4)" index="86948" value="1"/>
  <variable name="C(142,12)" index="86949" value="2"/>
  <variable name="C(163,24)" index="87046" value="1"/>
  <variable name="C(163,14)" index="87047" value="2"/>
  <variable name="C(193,22)" index="87172" value="1"/>
  <variable name="C(193,23)" index="87173" value="2"/>
  <variable name="C(204,22)" index="87212" value="1"/>
  <variable name="C(204,9)" index="87213" value="2"/>
  <variable name="C(224,4)" index="87292" value="1"/>
  <variable name="C(240,4)" index="87359" value="1"/>
  <variable name="C(240,7)" index="87360" value="2"/>
  <variable name="C(267,22)" index="87478" value="1"/>
  <variable name="C(267,26)" index="87479" value="2.0000000000000027"/>
  <variable name="C(267,27)" index="87480" value="3.0000000000000013"/>
  <variable name="C(267,19)" index="87481" value="4"/>
  <variable name="C(278,24)" index="87530" value="1"/>
  <variable name="C(278,22)" index="87531" value="2"/>
  <variable name="C(298,16)" index="87641" value="1"/>
  <variable name="C(298,17)" index="87642" value="2"/>
  <variable name="C(337,21)" index="87855" value="1"/>
  <variable name="C(337,1)" index="87856" value="2"/>
  <variable name="C(369,25)" index="87993" value="1"/>
  <variable name="C(369,22)" index="87994" value="2"/>
  <variable name="C(369,6)" index="87995" value="3"/>
  <variable name="C(390,3)" index="88094" value="1"/>
  <variable name="C(390,28)" index="88095" value="2"/>
  <variable name="C(393,28)" index="88110" value="1"/>
  <variable name="C(393,3)" index="88111" value="2"/>
  <variable name="C(395,22)" index="88120" value="1"/>
  <variable name="C(395,5)" index="88121" value="2"/>
  <variable name="C(436,19)" index="88343" value="1"/>
  <variable name="C(436,27)" index="88344" value="2"/>
  <variable name="C(445,8)" index="88373" value="1"/>
  <variable name="C(498,22)" index="88542" value="1"/>
  <variable name="C(498,25)" index="88543" value="2"/>
 </variables>
</CPLEXSolution>
